(set-info :smt-lib-version 2.6)
(set-logic QF_SLIA)
(set-info :source |
Generated by: Denghang Hu, Rongcheng Li, Zhilin Wu, Philipp Rummer, and Oliver Markgraf,
Generated on: 20240411,
Generator: ReDoSHunter4SymExec,
Application: ReDoS attack detection,
Target solver: Ostrich, Z3str3, CVC5
Description: The dataset is generated by the tool ReDoSHunter4SymExec
 at https://github.com/SuperMaxine/ReDoSHunter4SymExec, to test whether attacks for a regular expression exist.  
|)
(set-info :license "https://creativecommons.org/licenses/by/4.0/")
(set-info :category "industrial")
(set-info :status sat)

(declare-const result String)
(declare-const attack String)
(declare-const prefix RegLan)
(declare-const infix RegLan)
(declare-const postfix RegLan)
(declare-const postfixs String)

(assert (str.in_re attack (re.++ prefix ((_ re.loop 10000 10000) infix) postfix)))
(assert (= prefix 
     (re.++ (re.opt  (re.union  (str.to_re "\u{5c}\u{2d}")  (str.to_re "\u{5c}\u{2b}")) ) (re.+ (re.range "\u{31}" "\u{39}") ))
))
(assert (= infix 
        (re.inter (re.+ (re.range "\u{31}" "\u{39}") )  (re.++ (re.+ (re.range "\u{31}" "\u{39}") ) (re.* (re.range "\u{30}" "\u{39}") )) (re.* (re.range "\u{30}" "\u{39}") ) )
))
(assert (= postfix 
         (str.to_re "\u{25ce}")
))
(assert (str.in_re postfixs postfix))
(assert (>= (str.len postfixs) 1))
(assert (= result (str.++ attack postfixs)))
(check-sat)
(exit)
